###%***************************************************************************%
###%                                                                          *%                                                                                                                   
###%    Script to run Step 4 of the Cleaving Method with Walls                *%
###%                                                                          *%
###%***************************************************************************%
###%                                                                          *%
###%    Based on:                                                             *%
###%    R. Davidchack, B. Laird, J. Chem. Phys., 118:7651-7657 (2003)         *%
###%                                                                          *%
###%   ~~~~~~~~~~~~~~~~~~~~~~~~~~~~~~~~~~~~~~~~~~~~~~~~~~~~~~~~~~~~~~         *%
###%                                                                          *%
###%    Created by:                                                           *%
###%    Nicodemo Di Pasquale                                                  *%
###%    Department of Mathematics                                             *%
###%    University of Leicester                                               *%
###%    24 March 2018                                                         *%
###%                                                                          *%
###%***************************************************************************%

units		lj
atom_style	atomic

boundary p p p
read_data   inputStep4.lmp          

group crys type 1 4 
group liquid type  2 3 

mass * 1.0


# ---------------------------- Define variables --------------------------------

variable clwall1 equal 8.099840380596101
variable clwall2 equal 24.299521141788304
variable  cnt     equal  1
variable  siglj   equal  1.0
variable  epslj   equal  1.0
variable  sigma   equal  1.0
variable  eps     equal  1.0
variable  delta   equal  0.25
variable  zw file zwalls_back.dat
variable  crw     equal  2.0^(1.0/6.0)   
variable  eqnts   equal  0
variable  nts     equal  1000
variable  ts      equal  0.005
variable  cut1    equal  2.3
variable  cut2    equal  2.5
variable  Tsyst   equal  0.617
variable  Tdump   equal  0.0748
variable Nevery equal 1
variable Nrepeat equal 1 
variable Nfreq equal 1000
variable thermoSteps equal 5000

# ----- Derivate variables ------

variable  cutoff1  equal  ${siglj}*${cut1} 
variable  cutoff2  equal  ${siglj}*${cut2} 
variable  rw       equal  ${sigma}*${crw}
variable  cntt     equal ${cnt}

# ----------------------------- Interactions -----------------------------------


pair_style lj/BG ${cutoff1} ${cutoff2}
pair_coeff   * *  ${epslj} ${siglj}


neighbor     0.3 bin
neigh_modify every 1 delay 0 check yes 
atom_modify  sort 0 0.0

# ------------- Output thermo information and averaged variables ---------------

fix  f4  all nvt temp ${Tsyst} ${Tsyst} ${Tdump}

thermo    ${thermoSteps}
timestep  ${ts}


# -------------------------- Zero linear momentum ------------------------------

fix    f5  all momentum 1000 linear 1 1 1

# ----------------------- Moving Walls  ------------------------


label here
include    in.loop/loop
variable    cntt equal ${cnt}+1
variable    cnt  equal ${cntt}
next zw
jump SELF here

write_data Fstep4.${cnt}.data nocoeff
